title "swnc: e theory=pspw xc=pbe formula=Cu32 charge=0 mult=1"
#machinejob:expert

echo

start pspw-pbe-Cu32-mylabel

memory 1900 mb

charge 0

geometry noautoz nocenter noautosym
system crystal
   lattice_vectors
     8.400000 0.000000 0.000000
     0.000000 8.400000 0.000000
     0.000000 0.000000 8.400000
end

Cu -0.375000 -0.375000 -0.375000
Cu -0.375000 -0.125000 -0.125000
Cu -0.125000 -0.375000 -0.125000
Cu -0.125000 -0.125000 -0.375000
Cu 0.125000 -0.375000 -0.375000
Cu 0.125000 -0.125000 -0.125000
Cu 0.375000 -0.375000 -0.125000
Cu 0.375000 -0.125000 -0.375000
Cu -0.375000 0.125000 -0.375000
Cu -0.375000 0.375000 -0.125000
Cu -0.125000 0.125000 -0.125000
Cu -0.125000 0.375000 -0.375000
Cu 0.125000 0.125000 -0.375000
Cu 0.125000 0.375000 -0.125000
Cu 0.375000 0.125000 -0.125000
Cu 0.375000 0.375000 -0.375000
Cu -0.375000 -0.375000 0.125000
Cu -0.375000 -0.125000 0.375000
Cu -0.125000 -0.375000 0.375000
Cu -0.125000 -0.125000 0.125000
Cu 0.125000 -0.375000 0.125000
Cu 0.125000 -0.125000 0.375000
Cu 0.375000 -0.375000 0.375000
Cu 0.375000 -0.125000 0.125000
Cu -0.375000 0.125000 0.125000
Cu -0.375000 0.375000 0.375000
Cu -0.125000 0.125000 0.375000
Cu -0.125000 0.375000 0.125000
Cu 0.125000 0.125000 0.125000
Cu 0.125000 0.375000 0.375000
Cu 0.375000 0.125000 0.375000
Cu 0.375000 0.375000 0.125000
end


nwpw
  xc pbe96
  loop 10 100
  cutoff 50.0
  virtual 4 0
  #nolagrange
  lmbfgs
end
task pspw energy

nwpw
   smear  alpha_min 0.05 alpha_max 0.1 frozen filling [0.0 0.4 0.4 0.4 0.4 0.4]
   cg stiefel
end
task pspw energy

nwpw
   scf anderson alpha 0.150 kerker 0.10 iterations 3
   #cg stiefel
   loop 10 100
end
task pspw energy

nwpw
   lmbfgs stiefel
end
task pspw energy

nwpw
   cg stiefel
end
task pspw energy

nwpw
   scf anderson alpha 0.150 kerker 0.10 iterations 3
end
task pspw energy
task pspw energy
task pspw energy




