title "swnc: e theory=band xc=pbe formula=Cu4 charge=0 mult=1"
#machinejob:expert

echo

start pspw_pbe_Cu4

memory 1900 mb

charge 0

geometry noautoz nocenter noautosym
system crystal
   lattice_vectors
     3.620000 0.000000 0.000000
     0.000000 3.620000 0.000000
     0.000000 0.000000 3.620000
end

Cu 0.000000 0.000000 0.000000
Cu 0.000000 0.500000 0.500000
Cu 0.500000 0.000000 0.500000
Cu 0.500000 0.500000 0.000000
end



nwpw
  xc pbe96
  cutoff 30.0
  loop 10 200
  cg stiefel

  vectors output jjj.elc

  steepest_descent
     time_step 5.8
     loop 10 100
  end
end
task pspw energy
