title "swnc: e theory=band xc=pbe formula=Cu4 charge=0 mult=1"
#machinejob:expert

echo

start pspw_pbe_Cu4

memory 1900 mb

charge 0

geometry noautoz nocenter noautosym
system crystal
   lattice_vectors
     3.620000 0.000000 0.000000
     0.000000 3.620000 0.000000
     0.000000 0.000000 3.620000
end

Cu 0.000000 0.000000 0.000000
Cu 0.000000 0.500000 0.500000
Cu 0.500000 0.000000 0.500000
Cu 0.500000 0.500000 0.000000
end



nwpw
  xc pbe96
  loop 10 100
  cutoff 50.0
  virtual 4 0
  #nolagrange
end
task pspw energy

nwpw
   smear  alpha_min 0.05 alpha_max 0.1 frozen filling [0 0 0.3333333 0.3333333 0.3333334]
   cg stiefel
end
task pspw energy

nwpw
   scf anderson alpha 0.150 kerker 0.10 iterations 3
   #cg stiefel
   loop 10 100
end
task pspw energy

nwpw
   lmbfgs stiefel
end
task pspw energy

nwpw
   cg stiefel
end
task pspw energy

nwpw
   scf anderson alpha 0.150 kerker 0.10 iterations 3
end
task pspw energy
task pspw energy
task pspw energy


