title "swnc: e theory=band xc=pbe formula=Cu4 charge=0 mult=1"
#machinejob:expert

echo

start pspw_pbe_Cu4y

memory 1900 mb

charge 0

geometry noautoz nocenter noautosym
system crystal
   lattice_vectors
     3.620000 0.000000 0.000000
     0.000000 3.620000 0.000000
     0.000000 0.000000 3.620000
end

Cu 0.000000 0.000000 0.000000
Cu 0.000000 0.500000 0.500000
Cu 0.500000 0.000000 0.500000
Cu 0.500000 0.500000 0.000000
end



nwpw
  xc pbe96
  cutoff 30.0
  scf ks-grassmann-cg anderson alpha 0.15 
  #smear  fixed filling [0 0 0.3333333 0.3333333 0.3333334]
   #smear  fixed 
   loop 10 10
   tolerances 1.0e-11 1.0e-11
   virtual 4 0
   #np_dimensions -1 1 4
   #vectors output jjj.elc
end
task pspw energy
