Title "HF Born test"
echo

memory 1900 mb
start hf-born6

permanent_dir ./perm6
scratch_dir   ./perm6

geometry units angstroms noautosym  noautoz nocenter
H        -0.03804279     0.76297264     0.78739477 mass 2.0
F         0.59554279     0.35592736     0.34460523
end

nwpw

   simulation_cell
     SC 26.0
     #boundary_conditions aperiodic
   end
   xc pbe
   cutoff 30.0
   2d-hcurve

   born relax on

   car-parrinello 
      time_step 5.0
      fake_mass 750.0
      loop 1 10
   end
   
   steepest_descent
      geometry_optimize
      loop 1 2
      fake_mass 750.0
      time_step 5.0
   end
   #vectors output jjj.elc voutput jjj.velc
   
end
set nwpw:kbpp_ray    .true.
set nwpw:kbpp_filter .true.


#task pspw steepest_descent
task pspw energy
task pspw car-parrinello
