Title "Hellow Dolly"

memory 1900 mb
start h2-pspw
echo

#psp_library_dir /home/ericpsps

geometry noautosym noautoz center  
system crystal cartesian
   lattice_vectors
    12.0  0.0  0.0
     0.0 12.0  0.0
     0.0  0.0 10.0
end

H 0 0 0    
H 0 0 0.8  
end

nwpw
   apc on
   cutoff 10.0
   xc pbe
end
#task pspw steepest_descent
task pspw gradient

