Title "Hellow Dolly"

memory 1900 mb
start h2-pspw
echo

#psp_library_dir /home/ericpsps

geometry noautosym noautoz center
H 0 0 0    
H 0 0 0.8  
end

nwpw
   apc on
   simulation_cell
     SC 20.0   #simulate_cell input default in bohrs
   end
   cutoff 10.0
   xc pbe
end
#task pspw steepest_descent
task pspw gradient

