Title "Hellow Dolly"

memory 1900 mb
start h2-pspw
echo

#psp_library_dir /home/ericpsps

#### Note default units in geometry input is angstroms ####
geometry noautosym noautoz center  
system crystal cartesian
   lat_a 12.0
   lat_b 12.0
   lat_c 10.0
   alpha 90.0
   beta  90.0
   gamma 90.0
end

H 0 0 0    
H 0 0 0.8  
end

nwpw
   apc on
   cutoff 10.0
   xc pbe
end
#task pspw steepest_descent
task pspw gradient

