Title "H2 test"

memory 1900 mb
start h2-pspw
echo



geometry 
H   0.0 0.0 0.0
H   0.0 0.0 1.05
end

nwpw
   simulation_cell
     SC 26.0
   end
   2d-hcurve
   
   xc pbe
   cutoff 30.0
   loop 10 100
   virtual 1 0

end

task pspw energy

