Title "CCl4-F Born test"
echo

memory 1900 mb
start ccl4-f-qmmm

permanent_dir ./perm_qmmm
scratch_dir   ./perm_qmmm

charge -1 

geometry units angstroms noautosym  noautoz nocenter
Cl   -0.302804 1.234427 1.298566
C   0.075206 0.050102 0.012408
Cl   1.335825 -1.079122 0.593930
Cl   0.670364 0.912773 -1.436680
Cl   -1.401717 -0.869000 -0.404717
#F     3.001717  0.869000  0.404717 charge -1.0
end

nwpw

   simulation_cell
     SC 26.0
   end
   xc pbe
   cutoff 30.0
   2d-hcurve
   
end

task pspw gradient
