Title "CCl4-F Born test"
echo

memory 1900 mb
start ccl4-f-qmmm

permanent_dir ./perm_qmmm
scratch_dir   ./perm_qmmm


geometry units angstroms noautosym  noautoz nocenter
O         0.161560    -0.052912     0.033173
H         0.803054     0.369132    -0.511660
H        -0.325571    -0.669574    -0.488560
#O         0.021259     0.506771     2.831278 charge -0.8476 
#H        -0.721039     1.083100     2.758378 charge  0.4238
#H         0.158220     0.181883     1.945696 charge  0.4238
end
#bond_spring 4 5    554.25 1.0
#bond_spring 4 6    554.25 1.0
#angle_spring 5 4 6 47.744 109.4



nwpw

   simulation_cell
     SC 26.0
   end
   xc pbe
   cutoff 30.0
   2d-hcurve
   
end

task pspw gradient
