title "hello"
echo

start test
memory 1900 mb

permanent_dir ./perm2
scratch_dir   ./perm2

geometry units angstroms print xyz noautosym noautoz nocenter
C          0.85931        0.43132        0.46733
H          0.47301        0.60453       -0.55591
H          0.46882       -0.54190        0.84657
H          1.96121        0.40261        0.45051
H          1.74300       -1.79661       -1.42196
end

nwpw
  2d-hcurve
  #cutoff 30.0
  simulation_cell
    fcc 38.0 
  end
  xc pbe
  lmbfgs
  steepest_descent
     geometry_optimize
     time_step 5.0
     loop 10 1000
  end
end

task pspw energy
task pspw steepest_descent
task pspw optimize

