title "hello"
echo

start test3
memory 1900 mb

permanent_dir ./perm3
scratch_dir   ./perm3

geometry autosym symmetry_tolerance 0.01
C         0.12103884    -0.30556019    -0.25506423
H        -0.49031320     0.48277293    -0.68929663
H        -0.43301128    -0.79556343     0.54295995
H         1.03495325     0.12472155     0.14913463
H         0.37173239    -1.03469587    -1.02278872
end



nwpw
  cutoff 30.0
  simulation_cell
    fcc 38.0 
  end
  xc pbe
  lmbfgs
end
set nwpw:use_symmetry true

task pspw energy

set driver:symmetry_lock false
task pspw optimize

