Title "Benzene test"

memory 1900 mb
start benzene1-pspw
echo



geometry angstroms noautosym noautoz
C         0.114944     1.370921     0.000000
C        -1.129702     0.785167    -0.000000
C        -1.244418    -0.585738    -0.000000
C        -0.114943    -1.370920    -0.000000
C         1.129704    -0.785166     0.000000
C         1.244420     0.585738     0.000000
H        -2.010852     1.397894    -0.000000
H        -2.215721    -1.042422    -0.000000
H        -0.205163    -2.440365    -0.000000
H         2.010852    -1.397896     0.000000
H         2.215723     1.042422     0.000000
H         0.205157     2.440366     0.000000
end

nwpw
   pseudopotentials
   H library pspw_default
   C library pspw_default
   end

   simulation_cell
     SC 26.0
   end
   2d-hcurve
   
   xc pbe
   cutoff 30.0
end

task pspw energy

