Title "Benzene test"

memory 1900 mb
start benzene-pspw
echo



geometry angstroms noautosym noautoz
C   0.116672 1.386739 -0.000466
C   -1.142654 0.794419 0.000933
C   -1.259277 -0.592319 0.001394
C   -0.116677 -1.386735 0.000466
C   1.142654 -0.794421 -0.000933
C   1.259280 0.592324 -0.001394
H   -2.030702 1.411908 0.001654
H   -2.238046 -1.052702 0.002483
H   -0.207350 -2.464561 0.000826
H   2.030705 -1.411914 -0.001654
H   2.238054 1.052710 -0.002483
H   0.207341 2.464567 -0.000826
end

nwpw
   pseudopotentials
   H library pspw_default
   C library pspw_default
   end

   simulation_cell
     SC 26.0
   end
   2d-hcurve
   
   xc pbe
   cutoff 30.0
end

task pspw optimize

