Title "Hellow Dolly"
echo

memory 1900 mb
start ethane-pbe-pspw

#permanent_dir ./perm
#scratch_dir   ./perm


geometry
C   -0.723575 -0.245682 -0.003866
C   0.723575 0.245682 0.003866
H   -1.426391 0.588412 0.006127
H   -0.937326 -0.865592 0.867794
H   -0.935577 -0.843053 -0.891541
H   0.935539 0.843168 0.891473
H   0.937366 0.865477 -0.867865
H   1.426390 -0.588415 -0.005987
end


nwpw
   pseudopotentials
   O library pspw_default
   H library pspw_default
   end
   simulation_cell
     SC 20.0
   end
   mapping 3
   cutoff 30.0
   xc pbe
end
task pspw energy
task pspw optimize

