Title "Hellow Dolly"
echo

memory 1900 mb
start water-pbe-pspw

#permanent_dir ./perm
#scratch_dir   ./perm


geometry noautosym noautoz center
O 0 0 0    
H 0 0.0 1.0  
H 0 1.0 0.0  
end

nwpw
   pseudopotentials
   O library pspw_default
   H library pspw_default
   end
   simulation_cell
     SC 20.0
   end
   mapping 3
   cutoff 30.0
   xc pbe
end
task pspw energy
task pspw optimize

