title "CH3Cl - aperiodic PBE/30 Ry
#machinejob:expert

echo

start pspw-pbe-ch3cl-aperiodic

memory 1900 mb

permanent_dir ./perm
scratch_dir   ./perm

charge 0

geometry noautosym nocenter noautoz
C   0.456014 -1.041025 -0.142619
H   1.534496 -0.935588 -0.168315
H   0.149455 -1.660229 0.692550
H   0.086258 -1.445367 -1.077867
Cl   -0.263152 0.600745 0.082298
end
set nwpw:cif_filename  ch3cl


nwpw
  simulation_cell
     FCC 38.0
     boundary_conditions aperiodic
  end

  ### pseudopotential block begin ###
  ### pseudopotential block end   ###
  cutoff 30.0
  mult 1
  xc pbe96
  lmbfgs grassman 

  2d-hcurve
end

task pspw energy
