title "CH3Cl - PBE/30 Ry"
#machinejob:expert

echo

start pspw-pbe-ch3cl

memory 1900 mb

### Make sure you create a ./perm directory before running !!!!!
permanent_dir ./perm
scratch_dir   ./perm

charge 0

geometry noautosym nocenter noautoz
C   0.456014 -1.041025 -0.142619
H   1.534496 -0.935588 -0.168315
H   0.149455 -1.660229 0.692550
H   0.086258 -1.445367 -1.077867
Cl   -0.263152 0.600745 0.082298
end
set nwpw:cif_filename  ch3cl


nwpw
  simulation_cell
     FCC 38.0
  end

  ### pseudopotential block begin ###
  ### pseudopotential block end   ###
  cutoff 30.0
  mult 1
  xc pbe96
  lmbfgs grassman 
  tolerances 1.0e-12 1.0-12

  2d-hcurve
  #1d-slab
end

task pspw energy
