#nwchem_input  H4O2.nw
#nwchem_output H4O2.out00
#nwchem_done   H4O2.done
#
#mformula = H4O2
#
#mformula_off
#
#transfer_files *.nw *.xyz *.ion_motion *.emotion *.fei *.cif *.hist *.gr meta_*.dat meta.dat *.meta_gaussians *.cube *_epath *_final_epath POWER_SPECTRUM VELOCITY_SPECTRUM VEL_CORRELATION PAIR_DISTRIBUTION *.dipole_powerspectrum *.dipole_correlation
#bad_files md_xs
#
#curdir mymachine:/Projects/Simulations/PathOpt/pspw-pbe-H4O2-mylabel
#
#permdir pspw-pbe-H4O2-mylabel
#deletescratch no
#queuesave no
#
#machine aerosol3
#cputime 18:05:00
#ncpus 32
#queue regular
#

permanent_dir ./perm
scratch_dir   ./perm

title "swnc: e theory=pspw xc=pbe formula=H4O2 charge=0 mult=1"
#machinejob:expert

echo

start pspw-pbe-H4O2-mylabel

memory 1900 mb

charge 0

geometry noautoz nocenter noautosym
O     0.13513   -0.05627    0.09445
H     0.79058    0.37197   -0.48187
H    -0.33549   -0.65246   -0.50563
O     0.02105    0.48666    2.81228
H    -0.73085    1.07786    2.68447
H     0.21349    0.19973    1.90016
end


nwpw

  simulation_cell
     FCC 38.0
  end
  ### pseudopotential block begin ###
  ### pseudopotential block end   ###
  cutoff 50.0
  mult 1
  xc pbe96

  2d-hcurve
end

task pspw energy ignore

task pspw optimize ignore
