Title "Cu-Surface"

memory 1900 mb
start cu-surface-pspw
echo

permanent_dir ./perm
scratch_dir   ./perm

charge 0

geometry noautoz nocenter noautosym
system crystal
   lattice_vectors
     6.889190 -3.977476 0.000000
     0.000000 7.954952 0.000000
     0.000000 0.000000 17.990381
end

Cu 0.577351 0.192450 -0.120345
Cu -0.192451 -0.192451 -0.120345
Cu 0.192451 -0.000000 -0.120345
Cu 0.000000 0.192450 -0.120345
Cu 0.384900 0.384900 -0.120345
Cu -0.384900 -0.000000 -0.120345
Cu 0.384900 -0.192450 -0.120345
Cu 0.769800 0.000000 -0.120345
Cu 0.000000 -0.384900 -0.120345
Cu -0.192451 0.192450 0.000000
Cu 0.192451 0.384901 0.000000
Cu -0.577351 0.000000 0.000000
Cu 0.192451 -0.192450 0.000000
Cu 0.577351 -0.000000 0.000000
Cu 0.384900 0.192450 0.000000
Cu -0.192451 -0.384901 0.000000
Cu -0.384900 -0.192450 0.000000
Cu 0.000000 0.000000 0.000000
Cu 0.192451 0.192451 0.120345
Cu -0.577351 -0.192450 0.120345
Cu -0.192451 0.000000 0.120345
Cu -0.384900 0.192450 0.120345
Cu 0.000000 0.384900 0.120345
Cu -0.769800 -0.000000 0.120345
Cu 0.000000 -0.192450 0.120345
Cu 0.384900 0.000000 0.120345
Cu -0.384900 -0.384900 0.120345
Cu 0.577351 0.192450 0.240691
Cu -0.192451 -0.192451 0.240691
Cu 0.192451 -0.000000 0.240691
Cu 0.000000 0.192450 0.240691
Cu 0.384900 0.384900 0.240691
Cu -0.384900 -0.000000 0.240691
Cu 0.384900 -0.192450 0.240691
Cu 0.769800 0.000000 0.240691
Cu 0.000000 -0.384900 0.240691
end


nwpw
  mult 1
  xc pbe96
  2d-hcurve
  steepest_descent
     time_step 5.8
     loop 1 2
  end
  loop 2 2
  cutoff 5.0
end
set nwpw:cif_filename Cu36

task pspw energy
task pspw steepest_descent


