Title "CH4  test"

memory stack 500 mb heap 750 mb global 10 mb

start ch4-pspw

echo

#permanent_dir ./perm
#scratch_dir   ./perm


geometry noautosym noautoz
C        -0.000167     0.000612     0.000143
H         1.074360     0.076132    -0.029375
H        -0.290234    -0.637689     0.818651
H        -0.352445    -0.425876    -0.925066
H        -0.429688     0.980144     0.134092
end


nwpw
   simulation_cell
     SC 26.0
   end
   
   lmbfgs

   xc pbe
   cutoff 30.0
   #1d-slab
end

task pspw optimize


