title "swnc: e theory=pspw xc=pbe formula=H4O2 charge=0 mult=1"
#machinejob:expert

echo

start pspw-pbe-H4O2-mylabel

memory 1900 mb

permanent_dir ./perm
scratch_dir   ./perm

charge 0

geometry noautoz nocenter noautosym
O         0.161560    -0.052912     0.033173
H         0.803054     0.369132    -0.511660
H        -0.325571    -0.669574    -0.488560
O         0.021259     0.506771     2.831278
H        -0.721039     1.083100     2.758378
H         0.158220     0.181883     1.945696
end


nwpw
  simulation_cell
    SC 20.0
  end
  cutoff 30.0
  mult 1
  xc pbe96
  apc on

  2d-hcurve
end
set nwpw:cif_filename H4O2

task pspw energy ignore
task pspw optimize

